Forsterite Mg2SiO4 Orthorhombic Unit Cell
1.0
4.756000 0.000000 0.000000
0.000000 10.207000 0.000000
0.000000 0.000000 5.980000
Mg Si O
8 4 16
Direct
0.000000 0.000000 0.000000
0.500000 0.500000 0.000000
0.000000 0.500000 0.500000
0.500000 0.000000 0.500000
0.991500 0.277400 0.250000
0.491500 0.777400 0.250000
0.008500 0.722600 0.750000
0.508500 0.222600 0.750000
0.426200 0.094000 0.250000
0.926200 0.594000 0.250000
0.573800 0.906000 0.750000
0.073800 0.406000 0.750000
0.765700 0.091300 0.250000
0.265700 0.591300 0.250000
0.234300 0.908700 0.750000
0.734300 0.408700 0.750000
0.221500 0.447400 0.250000
0.721500 0.947400 0.250000
0.778500 0.552600 0.750000
0.278500 0.052600 0.750000
0.277700 0.162800 0.033100
0.777700 0.662800 0.033100
0.722300 0.837200 0.966900
0.222300 0.337200 0.966900
0.277700 0.162800 0.466900
0.777700 0.662800 0.466900
0.722300 0.837200 0.533100
0.222300 0.337200 0.533100
